4	143	143	0	0	0
5	144	103	0	0	0
6	236	184	0	0	0
7	279	240	0	15	15
8	267	244	0	16	16
9	261	225	0	31	31
10	385	242	0	15	15
11	438	306	0	203	203
12	377	339	0	15	15
13	541	343	0	31	31
14	551	395	0	31	31
15	675	405	15	32	47
16	560	431	0	32	32
17	656	412	0	93	93
18	634	434	0	187	187
19	875	527	0	78	78
